(set-logic QF_S)
(set-option :strings-exp true)
(set-option :produce-models true)
(declare-fun sigmaStar_0 () String)
(declare-fun literal_1 () String)
(declare-fun x_2 () String)
(declare-fun literal_3 () String)
(declare-fun x_4 () String)
(assert (= literal_1 "\x3c\x63\x65\x6e\x74\x65\x72\x3e"))
(assert (= x_2 (str.++ literal_1 sigmaStar_0)))
(assert (= literal_3 "\x20\x3c\x69\x6e\x70\x75\x74\x20\x74\x79\x70\x65\x3d\x27\x66\x69\x6c\x65\x27\x20\x6e\x61\x6d\x65\x3d\x27\x75\x70\x6c\x6f\x61\x64\x5f\x62\x61\x63\x6b\x75\x70\x5f\x66\x69\x6c\x65\x27\x20\x63\x6c\x61\x73\x73\x3d\x27\x74\x65\x78\x74\x62\x6f\x78\x27\x3e\x3c\x62\x72\x3e\x3c\x62\x72\x3e\x5c\x6e"))
(assert (= x_4 (str.++ x_2 literal_3)))
(assert (str.in.re x_4 (re.++ (re.* re.allchar) (re.++ (str.to.re "\x5c\x3c\x53\x43\x52\x49\x50\x54") (re.* re.allchar)))))
(check-sat)
(get-model)
